52
2 53 79 
2 10 104 
2 18 65 
2 69 25 
3 6 35 46 
2 27 24 
3 120 71 8 
3 80 39 117 
3 100 62 88 
1 14 
3 2 7 20 
2 68 36 
3 83 34 37 
3 3 66 85 
3 93 94 11 
2 16 19 
2 87 55 
3 72 58 48 
2 70 15 
2 115 9 
2 17 42 
2 32 112 
2 82 67 
3 31 61 57 
2 99 101 
2 74 119 
2 75 41 
2 102 45 
2 77 97 
3 96 47 63 
3 92 109 59 
3 29 73 13 
2 5 76 
2 49 111 
3 86 114 52 
3 21 64 60 
3 40 22 103 
3 38 91 51 
2 116 113 
2 105 33 
2 98 110 
2 54 28 
2 43 23 
2 56 26 
2 30 108 
2 78 50 
2 90 95 
2 44 1 
2 81 12 
2 84 89 
2 118 106 
2 107 4 
